* ENCODING=ISO-8859-1
NAME          
ROWS
 N  obj1    
 L  c1      
 L  c2      
 L  c3      
 L  c4      
 L  c5      
 L  c6      
 L  c7      
 L  c8      
 L  c9      
 L  c10     
 L  c11     
 L  c12     
 L  c13     
 L  c14     
 L  c15     
 L  c16     
 L  c17     
 L  c18     
 L  c19     
 L  c20     
 L  c21     
 L  c22     
 L  c23     
 L  c24     
 L  c25     
 L  c26     
 L  c27     
 L  c28     
 L  c29     
 L  c30     
 L  c31     
 L  c32     
 L  c33     
 L  c34     
 L  c35     
 L  c36     
 L  c37     
 L  c38     
 L  c39     
 L  c40     
 L  c41     
 L  c42     
 L  c43     
 L  c44     
 L  c45     
 L  c46     
 L  c47     
 L  c48     
 L  c49     
 L  c50     
 L  c51     
 L  c52     
 L  c53     
 L  c54     
 L  c55     
 L  c56     
 L  c57     
 L  c58     
 L  c59     
 L  c60     
 L  c61     
 L  c62     
 L  c63     
 L  c64     
 L  c65     
 L  c66     
 L  c67     
 L  c68     
 L  c69     
 L  c70     
 L  c71     
 L  c72     
 L  c73     
 L  c74     
 L  c75     
 L  c76     
 L  c77     
 L  c78     
 L  c79     
 L  c80     
 L  c81     
 L  c82     
 L  c83     
 L  c84     
 L  c85     
 L  c86     
 L  c87     
 L  c88     
 L  c89     
 L  c90     
 L  c91     
 L  c92     
 L  c93     
 L  c94     
 L  c95     
 L  c96     
 E  c97     
COLUMNS
    MARK0000  'MARKER'                 'INTORG'
    x1        obj1            -31.6047515869141
    x1        c1                             -1
    x1        c49                             1
    x1        c97                             1
    x2        obj1            -29.2884216308594
    x2        c2                             -1
    x2        c50                             1
    x2        c97                             1
    x3        obj1            -28.4908390045166
    x3        c3                             -1
    x3        c51                             1
    x3        c97                             1
    x4        obj1             3.22644805908203
    x4        c4                             -1
    x4        c52                             1
    x4        c97                             1
    x5        obj1            -17.8489418029785
    x5        c5                             -1
    x5        c53                             1
    x5        c97                             1
    x6        obj1             -10.490140914917
    x6        c6                             -1
    x6        c54                             1
    x6        c97                             1
    x7        obj1            -12.2129812240601
    x7        c7                             -1
    x7        c55                             1
    x7        c97                             1
    x8        obj1            -9.25831985473633
    x8        c8                             -1
    x8        c56                             1
    x8        c97                             1
    x9        obj1            -11.1517219543457
    x9        c9                             -1
    x9        c57                             1
    x9        c97                             1
    x10       obj1            -24.5837726593018
    x10       c10                            -1
    x10       c58                             1
    x10       c97                             1
    x11       obj1            -16.7757396697998
    x11       c11                            -1
    x11       c59                             1
    x11       c97                             1
    x12       obj1            -29.0546703338623
    x12       c12                            -1
    x12       c60                             1
    x12       c97                             1
    x13       obj1            -23.4995269775391
    x13       c13                            -1
    x13       c61                             1
    x13       c97                             1
    x14       obj1            -27.0575885772705
    x14       c14                            -1
    x14       c62                             1
    x14       c97                             1
    x15       obj1            -45.1046829223633
    x15       c15                            -1
    x15       c63                             1
    x15       c97                             1
    x16       obj1            -64.4830932617188
    x16       c16                            -1
    x16       c64                             1
    x16       c97                             1
    x17       obj1            -50.4792366027832
    x17       c17                            -1
    x17       c65                             1
    x17       c97                             1
    x18       obj1            -52.5546798706055
    x18       c18                            -1
    x18       c66                             1
    x18       c97                             1
    x19       obj1            -68.6060409545898
    x19       c19                            -1
    x19       c67                             1
    x19       c97                             1
    x20       obj1            -61.0545616149902
    x20       c20                            -1
    x20       c68                             1
    x20       c97                             1
    x21       obj1            -86.6644592285156
    x21       c21                            -1
    x21       c69                             1
    x21       c97                             1
    x22       obj1            -68.2277221679688
    x22       c22                            -1
    x22       c70                             1
    x22       c97                             1
    x23       obj1            -86.3137435913086
    x23       c23                            -1
    x23       c71                             1
    x23       c97                             1
    x24       obj1            -83.7822875976562
    x24       c24                            -1
    x24       c72                             1
    x24       c97                             1
    x25       obj1            -94.8729858398438
    x25       c25                            -1
    x25       c73                             1
    x25       c97                             1
    x26       obj1            -102.071624755859
    x26       c26                            -1
    x26       c74                             1
    x26       c97                             1
    x27       obj1            -69.0030975341797
    x27       c27                            -1
    x27       c75                             1
    x27       c97                             1
    x28       obj1            -76.8083038330078
    x28       c28                            -1
    x28       c76                             1
    x28       c97                             1
    x29       obj1            -84.5730133056641
    x29       c29                            -1
    x29       c77                             1
    x29       c97                             1
    x30       obj1            -91.5880584716797
    x30       c30                            -1
    x30       c78                             1
    x30       c97                             1
    x31       obj1            -69.9152603149414
    x31       c31                            -1
    x31       c79                             1
    x31       c97                             1
    x32       obj1            -83.5433883666992
    x32       c32                            -1
    x32       c80                             1
    x32       c97                             1
    x33       obj1            -93.4954528808594
    x33       c33                            -1
    x33       c81                             1
    x33       c97                             1
    x34       obj1            -87.5809707641602
    x34       c34                            -1
    x34       c82                             1
    x34       c97                             1
    x35       obj1             -98.930061340332
    x35       c35                            -1
    x35       c83                             1
    x35       c97                             1
    x36       obj1            -91.9881286621094
    x36       c36                            -1
    x36       c84                             1
    x36       c97                             1
    x37       obj1            -92.7324523925781
    x37       c37                            -1
    x37       c85                             1
    x37       c97                             1
    x38       obj1            -93.1091766357422
    x38       c38                            -1
    x38       c86                             1
    x38       c97                             1
    x39       obj1            -92.0819473266602
    x39       c39                            -1
    x39       c87                             1
    x39       c97                             1
    x40       obj1            -74.6219482421875
    x40       c40                            -1
    x40       c88                             1
    x40       c97                             1
    x41       obj1            -81.2562942504883
    x41       c41                            -1
    x41       c89                             1
    x41       c97                             1
    x42       obj1             -73.715705871582
    x42       c42                            -1
    x42       c90                             1
    x42       c97                             1
    x43       obj1            -84.5005187988281
    x43       c43                            -1
    x43       c91                             1
    x43       c97                             1
    x44       obj1            -80.5050048828125
    x44       c44                            -1
    x44       c92                             1
    x44       c97                             1
    x45       obj1            -73.2824401855469
    x45       c45                            -1
    x45       c93                             1
    x45       c97                             1
    x46       obj1            -78.0769424438477
    x46       c46                            -1
    x46       c94                             1
    x46       c97                             1
    x47       obj1            -66.2054214477539
    x47       c47                            -1
    x47       c95                             1
    x47       c97                             1
    x48       obj1            -72.6492538452148
    x48       c48                            -1
    x48       c96                             1
    x48       c97                             1
    MARK0001  'MARKER'                 'INTEND'
RHS
    rhs       c49                             1
    rhs       c50                             1
    rhs       c51                             1
    rhs       c52                             1
    rhs       c53                             1
    rhs       c54                             1
    rhs       c55                             1
    rhs       c56                             1
    rhs       c57                             1
    rhs       c58                             1
    rhs       c59                             1
    rhs       c60                             1
    rhs       c61                             1
    rhs       c62                             1
    rhs       c63                             1
    rhs       c64                             1
    rhs       c65                             1
    rhs       c66                             1
    rhs       c67                             1
    rhs       c68                             1
    rhs       c69                             1
    rhs       c70                             1
    rhs       c71                             1
    rhs       c72                             1
    rhs       c73                             1
    rhs       c74                             1
    rhs       c75                             1
    rhs       c76                             1
    rhs       c77                             1
    rhs       c78                             1
    rhs       c79                             1
    rhs       c80                             1
    rhs       c81                             1
    rhs       c82                             1
    rhs       c83                             1
    rhs       c84                             1
    rhs       c85                             1
    rhs       c86                             1
    rhs       c87                             1
    rhs       c88                             1
    rhs       c89                             1
    rhs       c90                             1
    rhs       c91                             1
    rhs       c92                             1
    rhs       c93                             1
    rhs       c94                             1
    rhs       c95                             1
    rhs       c96                             1
    rhs       c97                             5
BOUNDS
 UP bnd       x1                              1
 UP bnd       x2                              1
 UP bnd       x3                              1
 UP bnd       x4                              1
 UP bnd       x5                              1
 UP bnd       x6                              1
 UP bnd       x7                              1
 UP bnd       x8                              1
 UP bnd       x9                              1
 UP bnd       x10                             1
 UP bnd       x11                             1
 UP bnd       x12                             1
 UP bnd       x13                             1
 UP bnd       x14                             1
 UP bnd       x15                             1
 UP bnd       x16                             1
 UP bnd       x17                             1
 UP bnd       x18                             1
 UP bnd       x19                             1
 UP bnd       x20                             1
 UP bnd       x21                             1
 UP bnd       x22                             1
 UP bnd       x23                             1
 UP bnd       x24                             1
 UP bnd       x25                             1
 UP bnd       x26                             1
 UP bnd       x27                             1
 UP bnd       x28                             1
 UP bnd       x29                             1
 UP bnd       x30                             1
 UP bnd       x31                             1
 UP bnd       x32                             1
 UP bnd       x33                             1
 UP bnd       x34                             1
 UP bnd       x35                             1
 UP bnd       x36                             1
 UP bnd       x37                             1
 UP bnd       x38                             1
 UP bnd       x39                             1
 UP bnd       x40                             1
 UP bnd       x41                             1
 UP bnd       x42                             1
 UP bnd       x43                             1
 UP bnd       x44                             1
 UP bnd       x45                             1
 UP bnd       x46                             1
 UP bnd       x47                             1
 UP bnd       x48                             1
ENDATA
